NAME: tsp20_26
COMMENT: 20-tsp problem (Padberg/Rinaldi)
TYPE: TSP
DIMENSION: 20
EDGE_WEIGHT_TYPE : EUC_2D
NODE_COORD_SECTION
1 27 29
2 17 22
3 26 21
4 14 29
5 18 28
6 14 37
7 12 19
8 23 13
9 3 27
10 19 1
11 1 35
12 34 19
13 16 12
14 35 7
15 23 3
16 6 32
17 26 35
18 39 40
19 9 10
20 31 4
